125 300 157 189 190 193 172 157 176 197 199 164 163 158 168 197 151 193 155 154 195 198 176 161 176 156 200 181 173 192 194 198 160 151 160 200 168 182 182 194 153 154 182 191 187 174 187 189 192 166 193 186 189 193 197 164 199 171 170 196 187 163 167 197 189 177 170 157 184 151 150 161 156 157 151 193 155 162 155 197 178 172 183 166 164 153 155 162 174 175 183 160 162 200 181 151 151 151 158 159 152 183 170 183 164 171 150 170 157 180 191 185 152 198 176 166 151 155 153 200 154 186 160 166 185 165 192 